8901
967
6476
5995
6046
9573
1046
653
819
4376
8013
5838
5502
8966
3627
2704
1217
5254
8463
1689
9837
2272
1628
3095
6897
568
3148
8267
6732
10087
6697
2238
9007
4424
4516
1527
835
1475
6991
4544
3040
8901
9456
4405
2133
7337
8411
6128
5751
7308
